# Objective value = 3.8693299999999981e+03
I_0_0 781
I_0_1 9.1399999999999977e+02
I_0_2 9.8899999999999841e+02
I_0_3 9.5499999999999829e+02
I_0_4 8.5800000000000091e+02
I_0_5 9.4499999999999977e+02
I_0_6 1.2149999999999995e+03
I_1_0 62
I_1_1 62
I_1_2 31
I_1_3 0
I_1_4 6.1999999999998963e+01
I_1_5 31
I_1_6 0
I_2_0 166
I_2_1 83
I_2_2 166
I_2_3 83
I_2_4 166
I_2_5 83
I_2_6 0
I_3_0 100
I_3_1 5.0000000000000220e+01
I_3_2 2.2026824808563106e-13
I_3_3 1.0000000000000023e+02
I_3_4 1.0000000000000001e+02
I_3_5 5.0000000000000192e+01
I_3_6 1.9184653865522705e-13
I_4_0 154
I_4_1 154
I_4_2 7.7000000000001336e+01
I_4_3 1.5400000000000142e+02
I_4_4 77
I_4_5 154
I_4_6 77
I_5_0 29
I_5_1 29
I_5_2 29
I_5_3 0
I_5_4 29
I_5_5 29
I_5_6 0
q_1_0_0 31
q_1_0_1 0
q_1_0_2 0
q_1_0_3 9.2999999999998963e+01
q_1_0_4 1.0369376900723214e-12
q_1_0_5 0
q_1_1_0 0
q_1_1_1 0
q_1_1_2 0
q_1_1_3 0
q_1_1_4 0
q_1_1_5 0
q_2_0_0 0
q_2_0_1 166
q_2_0_2 0
q_2_0_3 0
q_2_0_4 0
q_2_0_5 0
q_2_1_0 0
q_2_1_1 0
q_2_1_2 0
q_2_1_3 166
q_2_1_4 0
q_2_1_5 0
q_3_0_0 2.2343238370581275e-13
q_3_0_1 0
q_3_0_2 0
q_3_0_3 4.9999999999999773e+01
q_3_0_4 0
q_3_0_5 0
q_3_1_0 0
q_3_1_1 0
q_3_1_2 150
q_3_1_3 0
q_3_1_4 1.9184653865522705e-13
q_3_1_5 0
q_4_0_0 77
q_4_0_1 1.3358203432289883e-12
q_4_0_2 1.5400000000000009e+02
q_4_0_3 0
q_4_0_4 154
q_4_0_5 0
q_4_1_0 0
q_4_1_1 0
q_4_1_2 0
q_4_1_3 -1.4210854715202004e-12
q_4_1_4 0
q_4_1_5 0
q_5_0_0 29
q_5_0_1 29
q_5_0_2 0
q_5_0_3 58
q_5_0_4 29
q_5_0_5 0
q_5_1_0 0
q_5_1_1 0
q_5_1_2 0
q_5_1_3 0
q_5_1_4 0
q_5_1_5 0
y_0_0_0 1
y_0_0_1 1
y_0_0_2 1
y_0_0_3 1
y_0_0_4 1
y_0_0_5 0
y_0_1_0 0
y_0_1_1 0
y_0_1_2 1
y_0_1_3 1
y_0_1_4 1.3322676295501878e-15
y_0_1_5 0
y_1_0_0 1
y_1_0_1 0
y_1_0_2 0
y_1_0_3 9.9999999999998890e-01
y_1_0_4 1.1149867635186251e-14
y_1_0_5 0
y_1_1_0 0
y_1_1_1 0
y_1_1_2 0
y_1_1_3 0
y_1_1_4 0
y_1_1_5 0
y_2_0_0 0
y_2_0_1 1
y_2_0_2 0
y_2_0_3 0
y_2_0_4 0
y_2_0_5 0
y_2_1_0 0
y_2_1_1 0
y_2_1_2 0
y_2_1_3 1
y_2_1_4 0
y_2_1_5 0
y_3_0_0 4.4686476741162551e-15
y_3_0_1 0
y_3_0_2 0
y_3_0_3 1
y_3_0_4 0
y_3_0_5 0
y_3_1_0 0
y_3_1_1 0
y_3_1_2 1
y_3_1_3 0
y_3_1_4 1.3322676295501878e-15
y_3_1_5 0
y_4_0_0 1
y_4_0_1 0
y_4_0_2 1
y_4_0_3 0
y_4_0_4 1
y_4_0_5 0
y_4_1_0 0
y_4_1_1 0
y_4_1_2 0
y_4_1_3 0
y_4_1_4 0
y_4_1_5 0
y_5_0_0 1
y_5_0_1 1
y_5_0_2 0
y_5_0_3 1
y_5_0_4 1
y_5_0_5 0
y_5_1_0 0
y_5_1_1 0
y_5_1_2 0
y_5_1_3 0
y_5_1_4 0
y_5_1_5 0
x_0_1_0_0 1
x_0_1_0_1 0
x_0_1_0_2 0
x_0_1_0_3 0.999999999999989
x_0_1_0_4 0
x_0_1_0_5 0
x_0_1_1_0 0
x_0_1_1_1 0
x_0_1_1_2 0
x_0_1_1_3 0
x_0_1_1_4 0
x_0_1_1_5 0
x_0_2_0_0 0
x_0_2_0_1 1
x_0_2_0_2 0
x_0_2_0_3 0
x_0_2_0_4 0
x_0_2_0_5 0
x_0_2_1_0 0
x_0_2_1_1 0
x_0_2_1_2 0
x_0_2_1_3 2
x_0_2_1_4 0
x_0_2_1_5 0
x_0_3_0_0 4.4686476741162551e-15
x_0_3_0_1 0
x_0_3_0_2 0
x_0_3_0_3 1
x_0_3_0_4 0
x_0_3_0_5 0
x_0_3_1_0 0
x_0_3_1_1 0
x_0_3_1_2 2
x_0_3_1_3 0
x_0_3_1_4 2.6645352591003757e-15
x_0_3_1_5 0
x_0_4_0_0 9.9999999999999556e-01
x_0_4_0_1 0
x_0_4_0_2 2
x_0_4_0_3 0
x_0_4_0_4 1
x_0_4_0_5 0
x_0_4_1_0 0
x_0_4_1_1 0
x_0_4_1_2 0
x_0_4_1_3 0
x_0_4_1_4 0
x_0_4_1_5 0
x_0_5_0_0 0
x_0_5_0_1 1
x_0_5_0_2 0
x_0_5_0_3 1.1102230246251565e-14
x_0_5_0_4 9.9999999999998890e-01
x_0_5_0_5 0
x_0_5_1_0 0
x_0_5_1_1 0
x_0_5_1_2 0
x_0_5_1_3 0
x_0_5_1_4 0
x_0_5_1_5 0
x_1_2_0_0 0
x_1_2_0_1 0
x_1_2_0_2 0
x_1_2_0_3 0
x_1_2_0_4 0
x_1_2_0_5 0
x_1_2_1_0 0
x_1_2_1_1 0
x_1_2_1_2 0
x_1_2_1_3 0
x_1_2_1_4 0
x_1_2_1_5 0
x_1_3_0_0 0
x_1_3_0_1 0
x_1_3_0_2 0
x_1_3_0_3 0
x_1_3_0_4 0
x_1_3_0_5 0
x_1_3_1_0 0
x_1_3_1_1 0
x_1_3_1_2 0
x_1_3_1_3 0
x_1_3_1_4 0
x_1_3_1_5 0
x_1_4_0_0 0
x_1_4_0_1 0
x_1_4_0_2 0
x_1_4_0_3 0
x_1_4_0_4 0
x_1_4_0_5 0
x_1_4_1_0 0
x_1_4_1_1 0
x_1_4_1_2 0
x_1_4_1_3 0
x_1_4_1_4 0
x_1_4_1_5 0
x_1_5_0_0 1
x_1_5_0_1 0
x_1_5_0_2 0
x_1_5_0_3 9.9999999999998879e-01
x_1_5_0_4 1.1149867635186251e-14
x_1_5_0_5 0
x_1_5_1_0 0
x_1_5_1_1 0
x_1_5_1_2 0
x_1_5_1_3 0
x_1_5_1_4 0
x_1_5_1_5 0
x_2_3_0_0 0
x_2_3_0_1 0
x_2_3_0_2 0
x_2_3_0_3 0
x_2_3_0_4 0
x_2_3_0_5 0
x_2_3_1_0 0
x_2_3_1_1 0
x_2_3_1_2 0
x_2_3_1_3 0
x_2_3_1_4 0
x_2_3_1_5 0
x_2_4_0_0 0
x_2_4_0_1 0
x_2_4_0_2 0
x_2_4_0_3 0
x_2_4_0_4 0
x_2_4_0_5 0
x_2_4_1_0 0
x_2_4_1_1 0
x_2_4_1_2 0
x_2_4_1_3 0
x_2_4_1_4 0
x_2_4_1_5 0
x_2_5_0_0 0
x_2_5_0_1 1
x_2_5_0_2 0
x_2_5_0_3 0
x_2_5_0_4 0
x_2_5_0_5 0
x_2_5_1_0 0
x_2_5_1_1 0
x_2_5_1_2 0
x_2_5_1_3 0
x_2_5_1_4 0
x_2_5_1_5 0
x_3_4_0_0 4.4686476741162551e-15
x_3_4_0_1 0
x_3_4_0_2 0
x_3_4_0_3 0
x_3_4_0_4 0
x_3_4_0_5 0
x_3_4_1_0 0
x_3_4_1_1 0
x_3_4_1_2 0
x_3_4_1_3 0
x_3_4_1_4 0
x_3_4_1_5 0
x_3_5_0_0 0
x_3_5_0_1 0
x_3_5_0_2 0
x_3_5_0_3 1
x_3_5_0_4 0
x_3_5_0_5 0
x_3_5_1_0 0
x_3_5_1_1 0
x_3_5_1_2 0
x_3_5_1_3 0
x_3_5_1_4 0
x_3_5_1_5 0
x_4_5_0_0 1
x_4_5_0_1 0
x_4_5_0_2 0
x_4_5_0_3 0
x_4_5_0_4 1
x_4_5_0_5 0
x_4_5_1_0 0
x_4_5_1_1 0
x_4_5_1_2 0
x_4_5_1_3 0
x_4_5_1_4 0
x_4_5_1_5 0
